
Gurobi 9.5.0 (linux64) logging started Fri Dec 15 10:44:09 2023

Set parameter LogFile to value "/lustre1/scratch/348/vsc34888/JointResearch/05.Models/06.Benchmarking/K.Investments_per_hour/RTS24_mod1_ByStages_nc90/openStarNet_RTS24_mod1_ByStages_nc90.log"
Set parameter Method to value 2
Set parameter MIPFocus to value 1
Set parameter Presolve to value 2
Set parameter RINS to value 100
Set parameter MIPGap to value 0.01
Set parameter Threads to value 36
Set parameter TimeLimit to value 259200
Set parameter IterationLimit to value 760000000
Gurobi Optimizer version 9.5.0 build v9.5.0rc5 (linux64)
Thread count: 36 physical cores, 36 logical processors, using up to 36 threads
Optimize a model with 32308 rows, 21775 columns and 87945 nonzeros
Model fingerprint: 0x785f36bb
Variable types: 21754 continuous, 21 integer (21 binary)
Coefficient statistics:
  Matrix range     [1e-03, 2e+03]
  Objective range  [1e+00, 1e+00]
  Bounds range     [4e-05, 2e+00]
  RHS range        [4e-05, 2e+00]
Presolve removed 19224 rows and 11008 columns
Presolve time: 0.12s
Presolved: 13084 rows, 10767 columns, 47214 nonzeros
Variable types: 10746 continuous, 21 integer (21 binary)
Found heuristic solution: objective 100.7175667
Root relaxation presolved: 13084 rows, 10767 columns, 47214 nonzeros

Root barrier log...

Ordering time: 0.00s

Barrier statistics:
 Dense cols : 21
 AA' NZ     : 8.768e+04
 Factor NZ  : 2.513e+05 (roughly 12 MB of memory)
 Factor Ops : 5.150e+06 (less than 1 second per iteration)
 Threads    : 36

                  Objective                Residual
Iter       Primal          Dual         Primal    Dual     Compl     Time
   0   6.34026500e+05 -4.23327974e+08  5.23e+00 6.05e+02  3.88e+04     0s
   1   8.73082048e+04 -1.08336229e+08  6.62e-01 1.10e-08  5.30e+03     0s
   2   3.00927547e+04 -1.65933705e+07  1.40e-01 1.34e-08  6.79e+02     0s
   3   1.59518729e+04 -1.29879106e+06  5.66e-03 3.75e-10  4.40e+01     0s
   4   1.05750702e+04 -1.41098985e+05  5.83e-13 2.34e-10  4.98e+00     0s
   5   4.53318913e+03 -3.77391558e+04  3.31e-13 6.09e-11  1.39e+00     0s
   6   1.25472620e+03 -1.08843282e+04  3.04e-13 1.73e-11  3.98e-01     0s
   7   3.78254299e+02 -2.71525191e+03  1.91e-13 3.64e-12  1.01e-01     0s
   8   2.18217135e+02 -6.95700211e+02  2.10e-13 3.64e-12  3.00e-02     0s
   9   1.54282663e+02 -2.53919880e+02  1.16e-13 1.82e-12  1.34e-02     0s
  10   1.02688070e+02 -6.93943380e+01  6.58e-14 7.28e-12  5.65e-03     0s
  11   7.27451603e+01  1.61778230e+01  4.53e-13 1.82e-12  1.86e-03     0s
  12   6.56096567e+01  3.17170137e+01  4.07e-13 3.64e-12  1.11e-03     0s
  13   5.96858360e+01  3.93280255e+01  3.83e-13 1.82e-12  6.68e-04     0s
  14   5.55424829e+01  4.21754647e+01  2.09e-12 3.64e-12  4.39e-04     0s
  15   5.39251281e+01  4.49909416e+01  9.83e-12 3.64e-12  2.93e-04     0s
  16   5.28492541e+01  4.61472135e+01  9.17e-12 3.64e-12  2.20e-04     0s
  17   5.18105993e+01  4.68829176e+01  5.62e-12 1.82e-12  1.62e-04     0s
  18   5.09717814e+01  4.79757015e+01  6.43e-12 1.82e-12  9.83e-05     0s
  19   5.04315105e+01  4.84831939e+01  1.09e-11 1.82e-12  6.39e-05     0s
  20   5.03277804e+01  4.89593407e+01  9.83e-12 3.64e-12  4.49e-05     0s
  21   5.01974871e+01  4.94845952e+01  1.35e-11 1.82e-12  2.34e-05     0s
  22   5.00493455e+01  4.96798127e+01  2.45e-11 1.82e-12  1.21e-05     0s
  23   5.00052926e+01  4.97147886e+01  1.06e-11 1.82e-12  9.53e-06     0s
  24   4.99304584e+01  4.97859817e+01  3.19e-11 7.28e-12  4.74e-06     0s
  25   4.99078336e+01  4.98933898e+01  3.02e-11 3.64e-12  4.74e-07     0s
  26   4.99044931e+01  4.99019083e+01  7.68e-11 7.28e-12  8.48e-08     0s
  27   4.99039617e+01  4.99033833e+01  1.25e-10 7.28e-12  1.90e-08     0s
  28   4.99038604e+01  4.99036560e+01  2.65e-10 3.64e-12  6.71e-09     0s
  29   4.99038362e+01  4.99037737e+01  9.57e-10 1.82e-12  2.05e-09     0s
  30   4.99038309e+01  4.99038249e+01  6.67e-10 1.82e-12  1.97e-10     1s
  31   4.99038306e+01  4.99038301e+01  1.87e-10 1.82e-12  1.73e-11     1s
  32   4.99038306e+01  4.99038306e+01  3.20e-10 7.28e-12  1.76e-14     1s

Barrier solved model in 32 iterations and 0.52 seconds (0.43 work units)
Optimal objective 4.99038306e+01


Root relaxation: objective 4.990383e+01, 1819 iterations, 0.35 seconds (0.26 work units)

    Nodes    |    Current Node    |     Objective Bounds      |     Work
 Expl Unexpl |  Obj  Depth IntInf | Incumbent    BestBd   Gap | It/Node Time

     0     0   49.90383    0   17  100.71757   49.90383  50.5%     -    0s
     0     0   51.34514    0   14  100.71757   51.34514  49.0%     -    1s
H    0     0                      95.6146702   51.34514  46.3%     -    1s
H    0     0                      86.5633974   51.37245  40.7%     -    1s
     0     0   51.37245    0   13   86.56340   51.37245  40.7%     -    1s
     0     0   51.37375    0   14   86.56340   51.37375  40.7%     -    1s
     0     0   51.60189    0   11   86.56340   51.60189  40.4%     -    2s
     0     0   51.63998    0   10   86.56340   51.63998  40.3%     -    2s
     0     0   51.64033    0   11   86.56340   51.64033  40.3%     -    2s
     0     0   51.72257    0   11   86.56340   51.72257  40.2%     -    2s
     0     0   51.96057    0   11   86.56340   51.96057  40.0%     -    2s
     0     0   51.96057    0   11   86.56340   51.96057  40.0%     -    2s
     0     0   52.54361    0   13   86.56340   52.54361  39.3%     -    3s
     0     0   52.54406    0   13   86.56340   52.54406  39.3%     -    3s
     0     0   52.54406    0   12   86.56340   52.54406  39.3%     -    3s
H    0     0                      81.0108246   52.54406  35.1%     -    4s
H    0     0                      69.5868476   52.54406  24.5%     -   15s
     0     2   52.54406    0   12   69.58685   52.54406  24.5%     -   16s
    99   124   57.65092    7   13   69.58685   55.19190  20.7%   595   21s
H  103   124                      69.3935200   55.19190  20.5%   593   21s
   252   185   69.32953    9   12   69.39352   55.19190  20.5%   504   26s
   299   204   65.96392   10   11   69.39352   55.19190  20.5%   490   52s
   694   272   69.24757   17    3   69.39352   55.19190  20.5%   427   55s
  1169   299   61.82425    7   14   69.39352   58.06040  16.3%   388   61s
  1896   239   64.05403    9   12   69.39352   58.42384  15.8%   355   71s
  2589   108   63.54944    9   12   69.39352   61.82949  10.9%   329   85s

Cutting planes:
  Gomory: 3
  Implied bound: 19
  MIR: 363
  Relax-and-lift: 33

Explored 3102 nodes (963592 simplex iterations) in 87.36 seconds (110.12 work units)
Thread count was 36 (of 36 available processors)

Solution count 6: 69.3935 69.5868 81.0108 ... 100.718

Optimal solution found (tolerance 1.00e-02)
Best objective 6.939351996709e+01, best bound 6.939351996709e+01, gap 0.0000%

Gurobi 9.5.0 (linux64) logging started Fri Dec 15 10:45:41 2023

Set parameter LogFile to value "/lustre1/scratch/348/vsc34888/JointResearch/05.Models/06.Benchmarking/K.Investments_per_hour/RTS24_mod1_ByStages_nc90/openStarNet_RTS24_mod1_ByStages_nc90.log"
Set parameter Method to value 2
Set parameter MIPFocus to value 1
Set parameter Presolve to value 2
Set parameter RINS to value 100
Set parameter MIPGap to value 0.01
Set parameter Threads to value 36
Set parameter TimeLimit to value 259200
Set parameter IterationLimit to value 760000000
No parameters matching 'relax_integrality' found
Gurobi Optimizer version 9.5.0 build v9.5.0rc5 (linux64)
Thread count: 36 physical cores, 36 logical processors, using up to 36 threads
Optimize a model with 32308 rows, 21754 columns and 80280 nonzeros
Model fingerprint: 0xf255011f
Coefficient statistics:
  Matrix range     [1e-03, 2e+03]
  Objective range  [1e+00, 1e+00]
  Bounds range     [4e-05, 2e+00]
  RHS range        [4e-05, 2e+01]
Presolve removed 27165 rows and 12461 columns
Presolve time: 0.04s
Presolved: 5143 rows, 9475 columns, 23071 nonzeros

Ordering time: 0.00s

Barrier statistics:
 AA' NZ     : 1.240e+04
 Factor NZ  : 4.448e+04 (roughly 5 MB of memory)
 Factor Ops : 5.800e+05 (less than 1 second per iteration)
 Threads    : 1

                  Objective                Residual
Iter       Primal          Dual         Primal    Dual     Compl     Time
   0   1.62586800e+06 -1.16672376e+08  9.08e+00 1.64e+03  7.44e+04     0s
   1   1.10065715e+05 -8.13342364e+07  5.84e-01 5.68e-11  8.63e+03     0s
   2   4.53969759e+04 -2.88016254e+07  1.81e-01 8.24e-11  2.39e+03     0s
   3   2.06979021e+04 -5.33801418e+06  7.12e-03 5.16e-11  3.42e+02     0s
   4   1.68005466e+04 -2.41357687e+05  1.10e-04 5.27e-11  1.60e+01     0s
   5   8.10708660e+03 -6.56639328e+04  8.00e-08 5.04e-11  4.58e+00     0s
   6   2.87959036e+03 -1.43890116e+04  9.77e-09 2.13e-11  1.07e+00     0s
   7   5.74744742e+02 -2.16680864e+03  2.52e-10 7.28e-12  1.70e-01     0s
   8   2.19737722e+02 -5.21384676e+02  5.59e-12 7.28e-12  4.60e-02     0s
   9   1.46678060e+02 -1.78576753e+02  2.33e-12 7.28e-12  2.02e-02     0s
  10   1.08998143e+02 -2.57177933e+01  1.05e-12 7.28e-12  8.36e-03     0s
  11   8.73950128e+01  2.69758868e+01  4.18e-13 1.82e-12  3.75e-03     0s
  12   7.88941357e+01  5.22672898e+01  2.13e-13 7.28e-12  1.65e-03     0s
  13   7.21852417e+01  6.31969332e+01  3.68e-13 7.28e-12  5.58e-04     0s
  14   7.02358547e+01  6.83635272e+01  4.72e-13 7.28e-12  1.16e-04     0s
  15   6.96370053e+01  6.90695311e+01  4.30e-12 1.82e-12  3.52e-05     0s
  16   6.94812091e+01  6.92789012e+01  1.44e-12 1.82e-12  1.26e-05     0s
  17   6.94241382e+01  6.93691926e+01  8.68e-13 7.28e-12  3.41e-06     0s
  18   6.94001844e+01  6.93877008e+01  1.39e-12 7.28e-12  7.75e-07     0s
  19   6.93942294e+01  6.93929513e+01  4.77e-12 7.28e-12  7.93e-08     0s
  20   6.93935237e+01  6.93935131e+01  4.82e-11 1.46e-11  6.58e-10     0s
  21   6.93935200e+01  6.93935200e+01  8.21e-12 7.28e-12  6.58e-13     0s
  22   6.93935200e+01  6.93935200e+01  3.53e-13 7.28e-12  2.23e-16     0s

Barrier solved model in 22 iterations and 0.12 seconds (0.11 work units)
Optimal objective 6.93935200e+01

Crossover log...

    1070 DPushes remaining with DInf 0.0000000e+00                 0s
       0 DPushes remaining with DInf 0.0000000e+00                 0s

     247 PPushes remaining with PInf 0.0000000e+00                 0s
       0 PPushes remaining with PInf 0.0000000e+00                 0s

  Push phase complete: Pinf 0.0000000e+00, Dinf 4.6140214e-13      0s

Iteration    Objective       Primal Inf.    Dual Inf.      Time
     254    6.9393520e+01   0.000000e+00   0.000000e+00      0s

Use crossover to convert LP symmetric solution to basic solution...
Crossover log...

       0 DPushes remaining with DInf 0.0000000e+00                 0s

     130 PPushes remaining with PInf 0.0000000e+00                 0s
       0 PPushes remaining with PInf 0.0000000e+00                 0s

  Push phase complete: Pinf 0.0000000e+00, Dinf 4.1428863e-13      0s

Iteration    Objective       Primal Inf.    Dual Inf.      Time
     391    6.9393520e+01   0.000000e+00   0.000000e+00      0s

Solved in 391 iterations and 0.17 seconds (0.13 work units)
Optimal objective  6.939351997e+01
